NAME : att48
TYPE : OP
DIMENSION : 48
COST_LIMIT : 6909
ROUTE_NODES : 35
ROUTE_SCORE : 1870
ROUTE_COST : 6897
NODE_SEQUENCE_SECTION
1
8
38
31
44
18
7
28
6
37
19
27
17
43
30
36
33
20
12
15
40
11
23
14
25
13
47
21
32
39
5
34
3
22
16
-1
DEPOT_SECTION
1
-1
EOF
